NAME : n40w180.003.398.tour
COMMENT : Length = 398
COMMENT : Found by LKH [Keld Helsgaun] Tue May  2 05:47:22 2017
TYPE : TOUR
DIMENSION : 41
TOUR_SECTION
1
32
35
25
17
15
22
33
11
19
39
16
9
7
28
36
6
23
14
38
8
13
5
27
21
26
30
34
29
2
3
24
10
18
31
37
4
41
20
40
12
-1
EOF
